(set-logic UFBV)
(declare-const hole_1 (_ BitVec 32))
(declare-const hole_0 (_ BitVec 32))
(declare-const hole_2 (_ BitVec 32))
(declare-const hole_4 (_ BitVec 32))
(declare-const hole_3 (_ BitVec 32))
(assert (forall ((x_0 (_ BitVec 32)))
(let ((c_naive_0 #b00000000000000000000000000000000))
(let ((c_naive_1 (bvadd c_naive_0 (bvlshr (bvand x_0 (bvshl #b00000000000000000000000000000001 #b00000000000000000000000000000000)) #b00000000000000000000000000000000))))
(let ((c_naive_2 (bvadd c_naive_1 (bvlshr (bvand x_0 (bvshl #b00000000000000000000000000000001 #b00000000000000000000000000000001)) #b00000000000000000000000000000001))))
(let ((c_naive_3 (bvadd c_naive_2 (bvlshr (bvand x_0 (bvshl #b00000000000000000000000000000001 #b00000000000000000000000000000010)) #b00000000000000000000000000000010))))
(let ((c_naive_4 (bvadd c_naive_3 (bvlshr (bvand x_0 (bvshl #b00000000000000000000000000000001 #b00000000000000000000000000000011)) #b00000000000000000000000000000011))))
(let ((c_naive_5 (bvadd c_naive_4 (bvlshr (bvand x_0 (bvshl #b00000000000000000000000000000001 #b00000000000000000000000000000100)) #b00000000000000000000000000000100))))
(let ((c_naive_6 (bvadd c_naive_5 (bvlshr (bvand x_0 (bvshl #b00000000000000000000000000000001 #b00000000000000000000000000000101)) #b00000000000000000000000000000101))))
(let ((c_naive_7 (bvadd c_naive_6 (bvlshr (bvand x_0 (bvshl #b00000000000000000000000000000001 #b00000000000000000000000000000110)) #b00000000000000000000000000000110))))
(let ((c_naive_8 (bvadd c_naive_7 (bvlshr (bvand x_0 (bvshl #b00000000000000000000000000000001 #b00000000000000000000000000000111)) #b00000000000000000000000000000111))))
(let ((c_naive_9 (bvadd c_naive_8 (bvlshr (bvand x_0 (bvshl #b00000000000000000000000000000001 #b00000000000000000000000000001000)) #b00000000000000000000000000001000))))
(let ((c_naive_10 (bvadd c_naive_9 (bvlshr (bvand x_0 (bvshl #b00000000000000000000000000000001 #b00000000000000000000000000001001)) #b00000000000000000000000000001001))))
(let ((c_naive_11 (bvadd c_naive_10 (bvlshr (bvand x_0 (bvshl #b00000000000000000000000000000001 #b00000000000000000000000000001010)) #b00000000000000000000000000001010))))
(let ((c_naive_12 (bvadd c_naive_11 (bvlshr (bvand x_0 (bvshl #b00000000000000000000000000000001 #b00000000000000000000000000001011)) #b00000000000000000000000000001011))))
(let ((c_naive_13 (bvadd c_naive_12 (bvlshr (bvand x_0 (bvshl #b00000000000000000000000000000001 #b00000000000000000000000000001100)) #b00000000000000000000000000001100))))
(let ((c_naive_14 (bvadd c_naive_13 (bvlshr (bvand x_0 (bvshl #b00000000000000000000000000000001 #b00000000000000000000000000001101)) #b00000000000000000000000000001101))))
(let ((c_naive_15 (bvadd c_naive_14 (bvlshr (bvand x_0 (bvshl #b00000000000000000000000000000001 #b00000000000000000000000000001110)) #b00000000000000000000000000001110))))
(let ((c_naive_16 (bvadd c_naive_15 (bvlshr (bvand x_0 (bvshl #b00000000000000000000000000000001 #b00000000000000000000000000001111)) #b00000000000000000000000000001111))))
(let ((c_naive_17 (bvadd c_naive_16 (bvlshr (bvand x_0 (bvshl #b00000000000000000000000000000001 #b00000000000000000000000000010000)) #b00000000000000000000000000010000))))
(let ((c_naive_18 (bvadd c_naive_17 (bvlshr (bvand x_0 (bvshl #b00000000000000000000000000000001 #b00000000000000000000000000010001)) #b00000000000000000000000000010001))))
(let ((c_naive_19 (bvadd c_naive_18 (bvlshr (bvand x_0 (bvshl #b00000000000000000000000000000001 #b00000000000000000000000000010010)) #b00000000000000000000000000010010))))
(let ((c_naive_20 (bvadd c_naive_19 (bvlshr (bvand x_0 (bvshl #b00000000000000000000000000000001 #b00000000000000000000000000010011)) #b00000000000000000000000000010011))))
(let ((c_naive_21 (bvadd c_naive_20 (bvlshr (bvand x_0 (bvshl #b00000000000000000000000000000001 #b00000000000000000000000000010100)) #b00000000000000000000000000010100))))
(let ((c_naive_22 (bvadd c_naive_21 (bvlshr (bvand x_0 (bvshl #b00000000000000000000000000000001 #b00000000000000000000000000010101)) #b00000000000000000000000000010101))))
(let ((c_naive_23 (bvadd c_naive_22 (bvlshr (bvand x_0 (bvshl #b00000000000000000000000000000001 #b00000000000000000000000000010110)) #b00000000000000000000000000010110))))
(let ((c_naive_24 (bvadd c_naive_23 (bvlshr (bvand x_0 (bvshl #b00000000000000000000000000000001 #b00000000000000000000000000010111)) #b00000000000000000000000000010111))))
(let ((c_naive_25 (bvadd c_naive_24 (bvlshr (bvand x_0 (bvshl #b00000000000000000000000000000001 #b00000000000000000000000000011000)) #b00000000000000000000000000011000))))
(let ((c_naive_26 (bvadd c_naive_25 (bvlshr (bvand x_0 (bvshl #b00000000000000000000000000000001 #b00000000000000000000000000011001)) #b00000000000000000000000000011001))))
(let ((c_naive_27 (bvadd c_naive_26 (bvlshr (bvand x_0 (bvshl #b00000000000000000000000000000001 #b00000000000000000000000000011010)) #b00000000000000000000000000011010))))
(let ((c_naive_28 (bvadd c_naive_27 (bvlshr (bvand x_0 (bvshl #b00000000000000000000000000000001 #b00000000000000000000000000011011)) #b00000000000000000000000000011011))))
(let ((c_naive_29 (bvadd c_naive_28 (bvlshr (bvand x_0 (bvshl #b00000000000000000000000000000001 #b00000000000000000000000000011100)) #b00000000000000000000000000011100))))
(let ((c_naive_30 (bvadd c_naive_29 (bvlshr (bvand x_0 (bvshl #b00000000000000000000000000000001 #b00000000000000000000000000011101)) #b00000000000000000000000000011101))))
(let ((c_naive_31 (bvadd c_naive_30 (bvlshr (bvand x_0 (bvshl #b00000000000000000000000000000001 #b00000000000000000000000000011110)) #b00000000000000000000000000011110))))
(let ((c_naive_32 (bvadd c_naive_31 (bvlshr (bvand x_0 (bvshl #b00000000000000000000000000000001 #b00000000000000000000000000011111)) #b00000000000000000000000000011111))))
(let ((c_0 x_0))
(let ((c_1 (bvadd (bvand c_0 hole_0) (bvand (bvlshr c_0 #b00000000000000000000000000000001) hole_0))))
(let ((c_2 (bvadd (bvand c_1 hole_1) (bvand (bvlshr c_1 #b00000000000000000000000000000010) hole_1))))
(let ((c_3 (bvadd (bvand c_2 hole_2) (bvand (bvlshr c_2 #b00000000000000000000000000000100) hole_2))))
(let ((c_4 (bvadd (bvand c_3 hole_3) (bvand (bvlshr c_3 #b00000000000000000000000000001000) hole_3))))
(let ((c_5 (bvadd (bvand c_4 hole_4) (bvand (bvlshr c_4 #b00000000000000000000000000010000) hole_4))))
(= c_5 c_naive_32))))))))))))))))))))))))))))))))))))))))))
(check-sat)
(get-model)